DIMACS_lns/graph-1000-983.col
p edge 1000 1847
e 1 630
e 1 409
e 1 203
e 1 477
e 1 778
e 1 497
e 5 313
e 5 545
e 5 739
e 5 245
e 5 97
e 6 604
e 6 464
e 6 667
e 6 693
e 7 598
e 7 864
e 7 580
e 7 503
e 7 30
e 7 811
e 8 430
e 8 440
e 8 704
e 8 487
e 9 577
e 9 296
e 9 73
e 9 450
e 9 732
e 10 957
e 10 111
e 10 750
e 10 191
e 11 184
e 11 950
e 11 683
e 12 214
e 12 328
e 12 410
e 12 146
e 12 404
e 13 427
e 13 776
e 13 342
e 14 905
e 14 543
e 14 833
e 15 411
e 15 704
e 15 619
e 15 660
e 16 407
e 16 461
e 16 338
e 16 580
e 16 73
e 17 728
e 17 930
e 17 888
e 18 832
e 18 267
e 18 111
e 18 635
e 19 50
e 19 61
e 19 289
e 19 401
e 19 331
e 19 819
e 20 827
e 20 392
e 20 986
e 20 664
e 21 106
e 21 237
e 21 903
e 22 932
e 22 456
e 22 964
e 22 82
e 22 985
e 22 823
e 23 630
e 23 457
e 23 507
e 23 494
e 23 546
e 24 775
e 24 152
e 24 486
e 24 105
e 24 96
e 25 528
e 25 679
e 25 435
e 25 106
e 26 541
e 26 110
e 26 111
e 26 356
e 27 251
e 27 260
e 27 975
e 27 931
e 27 560
e 28 640
e 28 624
e 28 317
e 28 105
e 30 737
e 30 695
e 32 805
e 32 506
e 32 82
e 33 914
e 33 95
e 33 34
e 33 319
e 33 960
e 33 212
e 33 934
e 34 359
e 34 760
e 34 630
e 34 461
e 34 235
e 34 366
e 34 177
e 35 694
e 35 262
e 35 59
e 37 624
e 37 450
e 37 72
e 37 648
e 39 809
e 39 134
e 39 582
e 39 737
e 39 753
e 40 374
e 40 976
e 40 826
e 40 582
e 41 412
e 41 918
e 41 286
e 41 759
e 41 756
e 42 782
e 42 117
e 42 527
e 42 845
e 43 962
e 43 437
e 43 990
e 43 890
e 43 848
e 43 695
e 46 171
e 46 876
e 46 84
e 47 868
e 47 154
e 47 59
e 48 67
e 48 800
e 48 846
e 48 270
e 49 928
e 49 354
e 49 87
e 50 389
e 50 417
e 50 661
e 50 858
e 50 112
e 51 872
e 51 807
e 51 553
e 51 364
e 51 912
e 51 744
e 52 144
e 52 417
e 52 438
e 53 997
e 53 232
e 53 418
e 53 514
e 53 802
e 53 83
e 53 357
e 54 480
e 54 135
e 54 524
e 54 243
e 54 65
e 54 873
e 54 282
e 55 482
e 55 467
e 55 752
e 55 913
e 57 952
e 57 321
e 57 375
e 57 265
e 57 799
e 58 815
e 58 206
e 58 883
e 58 865
e 59 365
e 59 775
e 59 484
e 59 741
e 60 790
e 60 713
e 60 708
e 60 787
e 61 156
e 61 245
e 62 632
e 62 86
e 62 734
e 62 375
e 63 705
e 63 238
e 63 555
e 63 72
e 63 576
e 63 113
e 64 636
e 64 283
e 64 765
e 65 591
e 65 960
e 65 797
e 66 152
e 66 933
e 66 790
e 66 721
e 66 230
e 66 909
e 66 466
e 67 957
e 67 149
e 67 975
e 67 744
e 68 618
e 68 383
e 68 797
e 68 204
e 68 425
e 69 317
e 69 370
e 69 525
e 71 494
e 71 838
e 71 85
e 71 643
e 72 706
e 72 827
e 73 95
e 73 599
e 73 296
e 74 827
e 74 399
e 74 896
e 74 609
e 74 803
e 75 569
e 75 171
e 75 668
e 75 78
e 75 890
e 76 897
e 76 700
e 76 286
e 76 521
e 76 623
e 76 832
e 76 833
e 76 316
e 78 267
e 78 577
e 78 987
e 81 215
e 81 832
e 81 444
e 81 639
e 81 780
e 81 523
e 81 911
e 81 373
e 81 332
e 82 433
e 82 821
e 83 956
e 83 819
e 83 886
e 83 93
e 83 836
e 83 449
e 83 324
e 84 877
e 84 832
e 84 745
e 84 746
e 84 780
e 85 778
e 85 322
e 85 535
e 86 249
e 86 290
e 87 725
e 87 731
e 87 271
e 90 95
e 90 105
e 90 961
e 90 407
e 90 161
e 91 194
e 91 675
e 91 119
e 91 142
e 91 994
e 93 682
e 93 743
e 93 566
e 94 824
e 94 855
e 94 965
e 95 813
e 95 218
e 95 283
e 95 895
e 95 132
e 95 287
e 96 280
e 96 473
e 97 335
e 97 178
e 99 932
e 99 939
e 99 299
e 99 151
e 99 630
e 99 110
e 100 877
e 100 875
e 100 338
e 102 212
e 102 489
e 102 630
e 102 270
e 102 199
e 105 169
e 105 435
e 105 643
e 105 433
e 106 455
e 106 984
e 107 927
e 107 980
e 107 592
e 107 254
e 107 574
e 108 198
e 108 464
e 108 166
e 108 784
e 108 762
e 108 999
e 108 806
e 108 416
e 109 880
e 109 572
e 109 204
e 109 357
e 109 287
e 110 245
e 110 303
e 110 270
e 111 467
e 111 879
e 111 441
e 111 298
e 111 914
e 112 930
e 112 260
e 112 461
e 113 324
e 113 198
e 113 948
e 113 718
e 114 763
e 114 128
e 114 823
e 114 758
e 114 734
e 114 251
e 115 715
e 115 937
e 115 858
e 115 596
e 115 306
e 117 298
e 117 664
e 117 700
e 117 925
e 117 643
e 118 939
e 118 829
e 118 675
e 118 343
e 118 624
e 119 277
e 119 514
e 119 522
e 119 428
e 119 441
e 120 199
e 120 438
e 120 797
e 120 261
e 120 748
e 121 785
e 121 819
e 121 903
e 122 769
e 122 602
e 122 629
e 122 979
e 123 833
e 123 383
e 123 914
e 123 271
e 126 903
e 126 203
e 126 718
e 126 383
e 126 397
e 128 312
e 128 595
e 130 772
e 130 350
e 130 316
e 132 845
e 132 659
e 132 752
e 132 463
e 132 532
e 133 494
e 133 971
e 133 415
e 133 146
e 133 885
e 134 919
e 134 151
e 135 517
e 135 883
e 135 615
e 135 262
e 136 748
e 136 593
e 136 531
e 136 910
e 137 425
e 137 566
e 137 752
e 137 414
e 138 947
e 138 360
e 138 174
e 140 661
e 140 584
e 140 487
e 140 499
e 140 482
e 141 922
e 141 395
e 141 477
e 141 763
e 141 939
e 141 291
e 142 143
e 142 259
e 142 219
e 142 756
e 142 527
e 142 218
e 142 876
e 143 632
e 143 763
e 143 365
e 143 780
e 143 840
e 143 682
e 143 760
e 143 991
e 143 678
e 143 564
e 144 584
e 144 764
e 144 533
e 145 610
e 145 925
e 145 895
e 145 230
e 145 533
e 145 146
e 145 829
e 145 537
e 146 431
e 146 924
e 146 569
e 147 496
e 147 911
e 147 741
e 147 946
e 148 574
e 148 911
e 148 381
e 148 597
e 148 987
e 148 322
e 149 233
e 149 512
e 149 541
e 150 846
e 150 973
e 150 984
e 151 449
e 151 489
e 151 629
e 151 551
e 152 862
e 152 381
e 152 365
e 152 328
e 152 542
e 152 282
e 152 297
e 152 327
e 153 369
e 153 177
e 153 172
e 153 419
e 153 845
e 154 828
e 154 511
e 156 738
e 156 437
e 156 298
e 156 471
e 156 463
e 158 656
e 158 414
e 158 954
e 158 173
e 158 525
e 159 569
e 159 490
e 159 635
e 159 927
e 160 690
e 160 555
e 160 257
e 160 869
e 161 789
e 161 395
e 161 635
e 162 199
e 162 832
e 162 377
e 162 879
e 162 768
e 162 443
e 162 290
e 166 335
e 166 498
e 167 497
e 167 227
e 167 412
e 168 840
e 168 179
e 168 330
e 168 541
e 168 438
e 168 471
e 169 965
e 169 588
e 169 987
e 169 793
e 169 592
e 170 845
e 170 944
e 170 895
e 170 882
e 170 641
e 171 811
e 171 988
e 171 211
e 171 459
e 171 982
e 171 602
e 172 206
e 172 709
e 172 378
e 172 682
e 172 195
e 172 238
e 173 732
e 173 778
e 173 535
e 173 340
e 173 386
e 174 435
e 174 299
e 174 297
e 176 695
e 176 783
e 176 911
e 177 623
e 177 871
e 178 991
e 178 218
e 179 450
e 179 684
e 179 233
e 179 327
e 181 267
e 181 745
e 181 617
e 181 539
e 182 248
e 182 215
e 182 934
e 184 331
e 184 677
e 184 628
e 184 348
e 187 889
e 187 952
e 187 274
e 187 667
e 187 203
e 188 872
e 188 821
e 188 616
e 189 291
e 189 329
e 189 560
e 190 946
e 190 328
e 190 919
e 190 376
e 190 665
e 190 771
e 191 913
e 191 271
e 193 722
e 193 979
e 193 443
e 194 562
e 194 628
e 194 966
e 194 578
e 194 242
e 194 356
e 195 828
e 195 780
e 195 309
e 195 609
e 198 551
e 198 878
e 198 773
e 198 679
e 199 902
e 199 527
e 199 598
e 203 781
e 203 245
e 203 990
e 203 572
e 203 370
e 203 635
e 203 799
e 204 876
e 206 747
e 206 213
e 208 461
e 208 477
e 208 582
e 209 798
e 209 674
e 209 665
e 209 689
e 209 647
e 209 440
e 210 533
e 210 569
e 210 630
e 211 369
e 211 689
e 211 883
e 211 818
e 211 999
e 211 368
e 212 360
e 212 559
e 212 560
e 212 314
e 212 846
e 213 829
e 213 237
e 213 822
e 213 308
e 214 294
e 214 998
e 214 958
e 214 865
e 215 735
e 215 217
e 215 403
e 215 894
e 216 924
e 216 800
e 216 572
e 216 434
e 216 559
e 216 823
e 217 938
e 217 921
e 217 884
e 218 946
e 218 974
e 219 731
e 219 637
e 220 610
e 220 728
e 220 703
e 220 407
e 220 633
e 220 456
e 220 784
e 222 975
e 222 914
e 222 711
e 223 506
e 223 854
e 223 359
e 223 778
e 223 636
e 225 869
e 225 305
e 225 486
e 225 435
e 227 587
e 227 664
e 228 730
e 228 404
e 228 264
e 230 451
e 230 839
e 230 512
e 230 310
e 230 322
e 231 793
e 231 384
e 231 738
e 231 829
e 231 479
e 232 690
e 232 560
e 233 393
e 233 892
e 235 499
e 235 836
e 235 978
e 235 774
e 235 819
e 237 933
e 237 683
e 238 619
e 238 334
e 241 562
e 241 303
e 241 653
e 242 353
e 242 301
e 242 715
e 242 519
e 243 420
e 243 278
e 243 462
e 243 774
e 244 882
e 244 653
e 244 822
e 244 664
e 244 265
e 244 962
e 245 981
e 245 465
e 245 731
e 245 832
e 246 582
e 246 366
e 246 575
e 246 787
e 248 935
e 248 848
e 248 911
e 248 575
e 249 519
e 249 559
e 249 339
e 249 429
e 249 824
e 251 922
e 251 517
e 251 565
e 251 999
e 251 457
e 254 591
e 254 982
e 254 417
e 257 971
e 257 493
e 259 632
e 259 690
e 259 517
e 259 968
e 259 894
e 260 298
e 261 771
e 261 569
e 261 977
e 261 710
e 261 381
e 262 764
e 262 615
e 262 865
e 262 376
e 263 710
e 263 274
e 263 377
e 264 421
e 264 377
e 264 632
e 265 425
e 265 967
e 265 755
e 265 948
e 267 934
e 267 937
e 267 343
e 267 966
e 268 721
e 268 292
e 268 984
e 268 516
e 268 763
e 270 740
e 271 467
e 274 840
e 274 305
e 274 480
e 276 750
e 276 606
e 276 545
e 276 838
e 276 613
e 277 946
e 277 366
e 277 585
e 277 661
e 278 997
e 278 315
e 278 342
e 278 313
e 278 357
e 280 421
e 280 377
e 280 423
e 282 466
e 282 478
e 282 922
e 282 511
e 282 368
e 283 728
e 283 832
e 285 564
e 285 593
e 285 815
e 286 516
e 287 991
e 287 660
e 287 424
e 287 657
e 287 519
e 287 395
e 289 987
e 289 488
e 289 342
e 290 499
e 290 768
e 291 844
e 292 868
e 292 584
e 292 451
e 294 727
e 294 334
e 296 785
e 296 865
e 296 309
e 297 411
e 297 364
e 297 822
e 298 588
e 298 586
e 298 997
e 298 580
e 298 467
e 299 438
e 299 574
e 299 708
e 299 781
e 299 386
e 299 824
e 299 911
e 299 587
e 299 647
e 301 373
e 301 521
e 301 769
e 301 584
e 301 304
e 301 840
e 303 730
e 303 809
e 303 879
e 303 765
e 303 576
e 303 353
e 303 314
e 303 880
e 303 780
e 303 418
e 304 438
e 304 361
e 304 653
e 304 392
e 305 693
e 305 676
e 305 998
e 305 498
e 305 640
e 306 675
e 306 790
e 306 537
e 308 559
e 308 994
e 308 849
e 308 838
e 309 587
e 309 983
e 310 829
e 310 429
e 310 482
e 311 350
e 311 458
e 311 852
e 312 578
e 312 755
e 312 492
e 313 851
e 314 534
e 315 719
e 315 599
e 316 676
e 316 488
e 316 352
e 317 880
e 317 475
e 317 320
e 319 723
e 319 916
e 320 355
e 320 823
e 320 782
e 321 905
e 321 357
e 321 846
e 322 335
e 324 928
e 324 572
e 324 339
e 324 610
e 324 735
e 326 857
e 326 509
e 326 983
e 326 607
e 326 791
e 327 681
e 328 512
e 328 470
e 328 437
e 329 746
e 329 521
e 329 680
e 329 478
e 329 468
e 330 721
e 330 693
e 330 364
e 331 557
e 331 818
e 331 516
e 331 871
e 331 854
e 332 609
e 332 446
e 332 701
e 332 858
e 334 946
e 334 601
e 335 577
e 335 759
e 335 348
e 335 614
e 336 502
e 336 539
e 336 775
e 337 889
e 337 983
e 337 762
e 337 868
e 337 967
e 337 903
e 338 684
e 338 634
e 339 614
e 339 725
e 339 767
e 339 818
e 340 522
e 340 711
e 340 511
e 340 755
e 341 968
e 341 373
e 341 985
e 342 383
e 343 399
e 343 695
e 343 877
e 343 545
e 343 868
e 343 625
e 343 531
e 343 885
e 343 643
e 343 771
e 343 872
e 343 911
e 347 902
e 347 652
e 347 614
e 347 543
e 348 957
e 348 427
e 349 616
e 349 409
e 349 357
e 350 733
e 351 379
e 351 616
e 351 711
e 352 437
e 352 529
e 352 799
e 353 518
e 353 494
e 353 897
e 354 752
e 354 366
e 354 534
e 355 642
e 355 410
e 355 589
e 356 499
e 356 625
e 357 918
e 357 979
e 357 626
e 359 555
e 359 839
e 359 642
e 360 844
e 360 428
e 361 982
e 361 516
e 361 509
e 361 459
e 361 980
e 364 661
e 365 843
e 365 747
e 365 860
e 365 809
e 366 433
e 366 449
e 366 589
e 366 625
e 368 767
e 368 979
e 368 567
e 369 580
e 369 639
e 369 465
e 370 781
e 370 679
e 370 710
e 372 465
e 372 933
e 372 731
e 372 601
e 372 765
e 372 437
e 373 873
e 373 588
e 373 498
e 373 687
e 373 427
e 373 811
e 374 750
e 374 464
e 374 961
e 375 650
e 375 668
e 376 963
e 377 642
e 377 415
e 378 690
e 378 518
e 378 978
e 379 602
e 379 648
e 379 958
e 379 403
e 380 932
e 380 765
e 380 524
e 381 528
e 383 456
e 383 878
e 384 543
e 384 490
e 384 545
e 386 496
e 386 782
e 386 431
e 388 512
e 388 883
e 388 966
e 388 395
e 388 693
e 388 879
e 389 468
e 389 959
e 391 861
e 391 987
e 391 712
e 392 597
e 392 938
e 392 877
e 392 614
e 393 640
e 393 861
e 395 740
e 396 753
e 396 517
e 396 589
e 397 606
e 397 713
e 399 692
e 401 403
e 401 916
e 401 701
e 401 979
e 402 783
e 402 873
e 402 468
e 402 629
e 403 820
e 404 973
e 404 787
e 404 971
e 404 416
e 407 892
e 407 466
e 407 632
e 407 532
e 409 575
e 409 921
e 409 913
e 409 714
e 410 779
e 410 750
e 410 528
e 411 884
e 411 606
e 412 948
e 412 888
e 412 713
e 412 712
e 413 840
e 413 963
e 413 635
e 414 743
e 414 819
e 414 739
e 415 922
e 415 873
e 415 467
e 415 543
e 416 729
e 416 832
e 416 557
e 417 895
e 417 916
e 417 562
e 418 581
e 418 516
e 419 644
e 419 523
e 419 427
e 419 543
e 419 843
e 420 652
e 420 713
e 420 802
e 420 470
e 421 468
e 423 524
e 423 981
e 423 536
e 424 640
e 424 862
e 425 753
e 425 910
e 425 426
e 426 695
e 426 601
e 426 773
e 426 453
e 427 763
e 427 593
e 427 703
e 427 668
e 427 875
e 427 976
e 427 546
e 428 439
e 428 510
e 428 626
e 429 759
e 430 806
e 430 653
e 430 547
e 431 623
e 431 875
e 433 731
e 434 911
e 434 990
e 435 533
e 437 681
e 437 960
e 437 736
e 437 818
e 437 729
e 438 727
e 438 624
e 438 733
e 439 677
e 439 793
e 439 743
e 439 882
e 439 492
e 439 713
e 440 752
e 441 851
e 441 852
e 441 728
e 441 644
e 443 731
e 443 905
e 443 977
e 444 765
e 444 811
e 444 971
e 444 586
e 445 836
e 445 588
e 445 778
e 446 719
e 446 644
e 446 658
e 446 616
e 447 793
e 447 805
e 447 829
e 449 959
e 449 944
e 450 640
e 450 649
e 451 597
e 453 537
e 453 930
e 453 731
e 454 838
e 454 885
e 454 938
e 454 758
e 455 827
e 455 999
e 456 911
e 456 799
e 457 458
e 458 983
e 458 932
e 458 531
e 458 728
e 459 503
e 459 649
e 459 493
e 459 775
e 461 959
e 461 852
e 461 999
e 462 617
e 462 964
e 463 822
e 465 962
e 465 633
e 465 492
e 466 765
e 466 475
e 467 956
e 468 819
e 468 512
e 468 893
e 470 819
e 470 480
e 470 487
e 471 502
e 473 779
e 473 968
e 473 634
e 475 908
e 475 893
e 475 582
e 475 521
e 475 734
e 475 687
e 475 928
e 477 851
e 478 738
e 479 560
e 479 932
e 479 746
e 480 694
e 480 506
e 480 652
e 482 649
e 482 966
e 482 683
e 482 860
e 482 592
e 484 577
e 484 838
e 486 776
e 486 762
e 488 724
e 489 502
e 489 952
e 489 516
e 490 836
e 492 935
e 492 988
e 492 643
e 493 705
e 493 681
e 494 569
e 494 930
e 494 819
e 494 979
e 494 522
e 496 844
e 497 747
e 497 974
e 497 682
e 498 573
e 498 813
e 498 511
e 498 991
e 498 674
e 498 709
e 499 566
e 499 849
e 502 854
e 502 719
e 503 872
e 503 724
e 506 636
e 506 798
e 506 939
e 507 634
e 507 566
e 509 665
e 509 519
e 510 609
e 510 978
e 511 741
e 511 849
e 511 916
e 511 957
e 512 598
e 514 539
e 515 876
e 515 672
e 515 598
e 515 829
e 516 739
e 516 659
e 517 656
e 518 803
e 518 925
e 518 550
e 518 690
e 519 815
e 519 835
e 519 987
e 521 522
e 523 818
e 523 561
e 523 740
e 524 709
e 524 823
e 525 713
e 527 774
e 527 934
e 528 958
e 528 873
e 529 604
e 529 976
e 529 756
e 531 722
e 531 864
e 531 574
e 532 712
e 532 560
e 533 723
e 533 848
e 533 563
e 533 789
e 534 680
e 535 642
e 535 640
e 536 800
e 536 625
e 537 911
e 537 576
e 537 836
e 539 543
e 539 952
e 539 601
e 542 688
e 542 566
e 543 660
e 545 902
e 545 642
e 546 561
e 546 820
e 547 901
e 547 654
e 547 722
e 547 561
e 547 768
e 547 674
e 550 744
e 550 710
e 550 965
e 550 681
e 551 921
e 553 641
e 553 838
e 553 911
e 553 613
e 555 873
e 555 581
e 557 977
e 557 950
e 559 835
e 559 700
e 560 674
e 560 915
e 562 886
e 562 739
e 562 946
e 563 998
e 563 743
e 564 708
e 564 596
e 564 978
e 565 905
e 565 908
e 566 706
e 567 820
e 567 598
e 572 656
e 572 927
e 573 640
e 573 614
e 573 644
e 574 787
e 574 649
e 575 652
e 575 637
e 575 857
e 575 771
e 575 595
e 575 683
e 576 668
e 577 793
e 578 964
e 578 623
e 580 982
e 580 755
e 580 648
e 581 784
e 581 714
e 581 748
e 585 599
e 585 861
e 586 899
e 586 839
e 586 799
e 587 725
e 587 763
e 588 699
e 589 760
e 591 964
e 591 700
e 592 732
e 592 981
e 593 946
e 595 779
e 595 681
e 596 803
e 597 893
e 597 826
e 597 747
e 598 997
e 598 683
e 599 948
e 599 839
e 599 922
e 601 935
e 601 826
e 601 767
e 601 778
e 601 658
e 601 615
e 603 937
e 603 880
e 603 706
e 604 714
e 606 947
e 607 986
e 607 634
e 607 919
e 607 899
e 609 692
e 610 665
e 610 684
e 610 911
e 612 885
e 612 618
e 612 919
e 613 751
e 613 975
e 613 721
e 614 676
e 614 885
e 615 896
e 616 888
e 616 934
e 616 783
e 617 958
e 617 681
e 617 919
e 618 858
e 619 771
e 619 875
e 622 830
e 622 806
e 622 640
e 623 895
e 624 630
e 624 894
e 624 626
e 625 626
e 625 674
e 628 766
e 628 802
e 628 763
e 628 902
e 629 727
e 629 977
e 630 737
e 633 700
e 633 861
e 633 918
e 633 640
e 634 931
e 634 657
e 634 938
e 635 678
e 635 976
e 636 729
e 636 855
e 637 803
e 639 957
e 640 701
e 641 707
e 641 704
e 643 967
e 643 737
e 646 800
e 646 782
e 646 715
e 646 977
e 647 809
e 647 751
e 650 664
e 650 720
e 651 661
e 651 765
e 651 689
e 652 798
e 652 997
e 653 882
e 653 721
e 654 730
e 654 901
e 656 961
e 656 809
e 657 802
e 657 944
e 658 833
e 658 982
e 659 782
e 659 809
e 660 766
e 660 965
e 660 722
e 660 980
e 664 909
e 664 826
e 667 933
e 667 760
e 668 755
e 668 680
e 668 886
e 672 752
e 672 747
e 674 753
e 674 787
e 674 779
e 674 675
e 674 750
e 675 690
e 675 728
e 676 826
e 676 875
e 677 705
e 677 910
e 678 699
e 679 927
e 679 988
e 681 976
e 682 843
e 683 773
e 683 693
e 684 901
e 684 959
e 687 725
e 688 766
e 688 844
e 690 897
e 691 718
e 691 758
e 691 789
e 692 735
e 693 745
e 694 719
e 695 939
e 695 772
e 699 769
e 700 799
e 700 727
e 701 963
e 703 954
e 705 793
e 707 722
e 707 944
e 707 938
e 707 823
e 708 726
e 708 793
e 710 933
e 711 965
e 711 720
e 712 811
e 714 939
e 714 924
e 714 975
e 715 896
e 715 785
e 715 762
e 718 941
e 719 734
e 719 944
e 720 931
e 722 871
e 723 826
e 724 737
e 725 855
e 726 950
e 726 835
e 727 869
e 728 733
e 731 823
e 736 793
e 736 774
e 737 956
e 738 999
e 740 854
e 743 823
e 743 935
e 743 853
e 745 769
e 746 752
e 746 913
e 746 871
e 748 939
e 748 931
e 750 959
e 750 872
e 751 762
e 756 903
e 759 802
e 760 973
e 762 876
e 762 862
e 763 905
e 763 893
e 764 925
e 767 819
e 768 836
e 768 944
e 769 787
e 769 888
e 771 975
e 771 905
e 772 998
e 772 815
e 772 895
e 776 821
e 778 875
e 778 896
e 778 853
e 779 977
e 783 875
e 784 823
e 787 895
e 789 819
e 790 890
e 790 824
e 791 844
e 791 919
e 798 935
e 798 884
e 800 836
e 805 974
e 807 994
e 807 941
e 807 911
e 813 948
e 818 860
e 819 947
e 819 967
e 821 885
e 822 828
e 822 954
e 829 868
e 829 830
e 829 968
e 829 910
e 830 883
e 835 838
e 836 862
e 840 986
e 845 915
e 848 912
e 852 862
e 853 908
e 857 928
e 857 899
e 858 985
e 864 981
e 869 966
e 871 918
e 871 901
e 878 912
e 883 892
e 885 889
e 886 959
e 903 999
e 905 952
e 909 964
e 914 985
e 915 928
e 930 950
e 935 981
e 941 971
e 948 958
e 957 980
e 966 967
