txt_Ins/graph-1000-983.txt
n 1000
e 0 629
e 0 408
e 0 202
e 0 476
e 0 777
e 0 496
e 4 312
e 4 544
e 4 738
e 4 244
e 4 96
e 5 603
e 5 463
e 5 666
e 5 692
e 6 597
e 6 863
e 6 579
e 6 502
e 6 29
e 6 810
e 7 429
e 7 439
e 7 703
e 7 486
e 8 576
e 8 295
e 8 72
e 8 449
e 8 731
e 9 956
e 9 110
e 9 749
e 9 190
e 10 183
e 10 949
e 10 682
e 11 213
e 11 327
e 11 409
e 11 145
e 11 403
e 12 426
e 12 775
e 12 341
e 13 904
e 13 542
e 13 832
e 14 410
e 14 703
e 14 618
e 14 659
e 15 406
e 15 460
e 15 337
e 15 579
e 15 72
e 16 727
e 16 929
e 16 887
e 17 831
e 17 266
e 17 110
e 17 634
e 18 49
e 18 60
e 18 288
e 18 400
e 18 330
e 18 818
e 19 826
e 19 391
e 19 985
e 19 663
e 20 105
e 20 236
e 20 902
e 21 931
e 21 455
e 21 963
e 21 81
e 21 984
e 21 822
e 22 629
e 22 456
e 22 506
e 22 493
e 22 545
e 23 774
e 23 151
e 23 485
e 23 104
e 23 95
e 24 527
e 24 678
e 24 434
e 24 105
e 25 540
e 25 109
e 25 110
e 25 355
e 26 250
e 26 259
e 26 974
e 26 930
e 26 559
e 27 639
e 27 623
e 27 316
e 27 104
e 29 736
e 29 694
e 31 804
e 31 505
e 31 81
e 32 913
e 32 94
e 32 33
e 32 318
e 32 959
e 32 211
e 32 933
e 33 358
e 33 759
e 33 629
e 33 460
e 33 234
e 33 365
e 33 176
e 34 693
e 34 261
e 34 58
e 36 623
e 36 449
e 36 71
e 36 647
e 38 808
e 38 133
e 38 581
e 38 736
e 38 752
e 39 373
e 39 975
e 39 825
e 39 581
e 40 411
e 40 917
e 40 285
e 40 758
e 40 755
e 41 781
e 41 116
e 41 526
e 41 844
e 42 961
e 42 436
e 42 989
e 42 889
e 42 847
e 42 694
e 45 170
e 45 875
e 45 83
e 46 867
e 46 153
e 46 58
e 47 66
e 47 799
e 47 845
e 47 269
e 48 927
e 48 353
e 48 86
e 49 388
e 49 416
e 49 660
e 49 857
e 49 111
e 50 871
e 50 806
e 50 552
e 50 363
e 50 911
e 50 743
e 51 143
e 51 416
e 51 437
e 52 996
e 52 231
e 52 417
e 52 513
e 52 801
e 52 82
e 52 356
e 53 479
e 53 134
e 53 523
e 53 242
e 53 64
e 53 872
e 53 281
e 54 481
e 54 466
e 54 751
e 54 912
e 56 951
e 56 320
e 56 374
e 56 264
e 56 798
e 57 814
e 57 205
e 57 882
e 57 864
e 58 364
e 58 774
e 58 483
e 58 740
e 59 789
e 59 712
e 59 707
e 59 786
e 60 155
e 60 244
e 61 631
e 61 85
e 61 733
e 61 374
e 62 704
e 62 237
e 62 554
e 62 71
e 62 575
e 62 112
e 63 635
e 63 282
e 63 764
e 64 590
e 64 959
e 64 796
e 65 151
e 65 932
e 65 789
e 65 720
e 65 229
e 65 908
e 65 465
e 66 956
e 66 148
e 66 974
e 66 743
e 67 617
e 67 382
e 67 796
e 67 203
e 67 424
e 68 316
e 68 369
e 68 524
e 70 493
e 70 837
e 70 84
e 70 642
e 71 705
e 71 826
e 72 94
e 72 598
e 72 295
e 73 826
e 73 398
e 73 895
e 73 608
e 73 802
e 74 568
e 74 170
e 74 667
e 74 77
e 74 889
e 75 896
e 75 699
e 75 285
e 75 520
e 75 622
e 75 831
e 75 832
e 75 315
e 77 266
e 77 576
e 77 986
e 80 214
e 80 831
e 80 443
e 80 638
e 80 779
e 80 522
e 80 910
e 80 372
e 80 331
e 81 432
e 81 820
e 82 955
e 82 818
e 82 885
e 82 92
e 82 835
e 82 448
e 82 323
e 83 876
e 83 831
e 83 744
e 83 745
e 83 779
e 84 777
e 84 321
e 84 534
e 85 248
e 85 289
e 86 724
e 86 730
e 86 270
e 89 94
e 89 104
e 89 960
e 89 406
e 89 160
e 90 193
e 90 674
e 90 118
e 90 141
e 90 993
e 92 681
e 92 742
e 92 565
e 93 823
e 93 854
e 93 964
e 94 812
e 94 217
e 94 282
e 94 894
e 94 131
e 94 286
e 95 279
e 95 472
e 96 334
e 96 177
e 98 931
e 98 938
e 98 298
e 98 150
e 98 629
e 98 109
e 99 876
e 99 874
e 99 337
e 101 211
e 101 488
e 101 629
e 101 269
e 101 198
e 104 168
e 104 434
e 104 642
e 104 432
e 105 454
e 105 983
e 106 926
e 106 979
e 106 591
e 106 253
e 106 573
e 107 197
e 107 463
e 107 165
e 107 783
e 107 761
e 107 998
e 107 805
e 107 415
e 108 879
e 108 571
e 108 203
e 108 356
e 108 286
e 109 244
e 109 302
e 109 269
e 110 466
e 110 878
e 110 440
e 110 297
e 110 913
e 111 929
e 111 259
e 111 460
e 112 323
e 112 197
e 112 947
e 112 717
e 113 762
e 113 127
e 113 822
e 113 757
e 113 733
e 113 250
e 114 714
e 114 936
e 114 857
e 114 595
e 114 305
e 116 297
e 116 663
e 116 699
e 116 924
e 116 642
e 117 938
e 117 828
e 117 674
e 117 342
e 117 623
e 118 276
e 118 513
e 118 521
e 118 427
e 118 440
e 119 198
e 119 437
e 119 796
e 119 260
e 119 747
e 120 784
e 120 818
e 120 902
e 121 768
e 121 601
e 121 628
e 121 978
e 122 832
e 122 382
e 122 913
e 122 270
e 125 902
e 125 202
e 125 717
e 125 382
e 125 396
e 127 311
e 127 594
e 129 771
e 129 349
e 129 315
e 131 844
e 131 658
e 131 751
e 131 462
e 131 531
e 132 493
e 132 970
e 132 414
e 132 145
e 132 884
e 133 918
e 133 150
e 134 516
e 134 882
e 134 614
e 134 261
e 135 747
e 135 592
e 135 530
e 135 909
e 136 424
e 136 565
e 136 751
e 136 413
e 137 946
e 137 359
e 137 173
e 139 660
e 139 583
e 139 486
e 139 498
e 139 481
e 140 921
e 140 394
e 140 476
e 140 762
e 140 938
e 140 290
e 141 142
e 141 258
e 141 218
e 141 755
e 141 526
e 141 217
e 141 875
e 142 631
e 142 762
e 142 364
e 142 779
e 142 839
e 142 681
e 142 759
e 142 990
e 142 677
e 142 563
e 143 583
e 143 763
e 143 532
e 144 609
e 144 924
e 144 894
e 144 229
e 144 532
e 144 145
e 144 828
e 144 536
e 145 430
e 145 923
e 145 568
e 146 495
e 146 910
e 146 740
e 146 945
e 147 573
e 147 910
e 147 380
e 147 596
e 147 986
e 147 321
e 148 232
e 148 511
e 148 540
e 149 845
e 149 972
e 149 983
e 150 448
e 150 488
e 150 628
e 150 550
e 151 861
e 151 380
e 151 364
e 151 327
e 151 541
e 151 281
e 151 296
e 151 326
e 152 368
e 152 176
e 152 171
e 152 418
e 152 844
e 153 827
e 153 510
e 155 737
e 155 436
e 155 297
e 155 470
e 155 462
e 157 655
e 157 413
e 157 953
e 157 172
e 157 524
e 158 568
e 158 489
e 158 634
e 158 926
e 159 689
e 159 554
e 159 256
e 159 868
e 160 788
e 160 394
e 160 634
e 161 198
e 161 831
e 161 376
e 161 878
e 161 767
e 161 442
e 161 289
e 165 334
e 165 497
e 166 496
e 166 226
e 166 411
e 167 839
e 167 178
e 167 329
e 167 540
e 167 437
e 167 470
e 168 964
e 168 587
e 168 986
e 168 792
e 168 591
e 169 844
e 169 943
e 169 894
e 169 881
e 169 640
e 170 810
e 170 987
e 170 210
e 170 458
e 170 981
e 170 601
e 171 205
e 171 708
e 171 377
e 171 681
e 171 194
e 171 237
e 172 731
e 172 777
e 172 534
e 172 339
e 172 385
e 173 434
e 173 298
e 173 296
e 175 694
e 175 782
e 175 910
e 176 622
e 176 870
e 177 990
e 177 217
e 178 449
e 178 683
e 178 232
e 178 326
e 180 266
e 180 744
e 180 616
e 180 538
e 181 247
e 181 214
e 181 933
e 183 330
e 183 676
e 183 627
e 183 347
e 186 888
e 186 951
e 186 273
e 186 666
e 186 202
e 187 871
e 187 820
e 187 615
e 188 290
e 188 328
e 188 559
e 189 945
e 189 327
e 189 918
e 189 375
e 189 664
e 189 770
e 190 912
e 190 270
e 192 721
e 192 978
e 192 442
e 193 561
e 193 627
e 193 965
e 193 577
e 193 241
e 193 355
e 194 827
e 194 779
e 194 308
e 194 608
e 197 550
e 197 877
e 197 772
e 197 678
e 198 901
e 198 526
e 198 597
e 202 780
e 202 244
e 202 989
e 202 571
e 202 369
e 202 634
e 202 798
e 203 875
e 205 746
e 205 212
e 207 460
e 207 476
e 207 581
e 208 797
e 208 673
e 208 664
e 208 688
e 208 646
e 208 439
e 209 532
e 209 568
e 209 629
e 210 368
e 210 688
e 210 882
e 210 817
e 210 998
e 210 367
e 211 359
e 211 558
e 211 559
e 211 313
e 211 845
e 212 828
e 212 236
e 212 821
e 212 307
e 213 293
e 213 997
e 213 957
e 213 864
e 214 734
e 214 216
e 214 402
e 214 893
e 215 923
e 215 799
e 215 571
e 215 433
e 215 558
e 215 822
e 216 937
e 216 920
e 216 883
e 217 945
e 217 973
e 218 730
e 218 636
e 219 609
e 219 727
e 219 702
e 219 406
e 219 632
e 219 455
e 219 783
e 221 974
e 221 913
e 221 710
e 222 505
e 222 853
e 222 358
e 222 777
e 222 635
e 224 868
e 224 304
e 224 485
e 224 434
e 226 586
e 226 663
e 227 729
e 227 403
e 227 263
e 229 450
e 229 838
e 229 511
e 229 309
e 229 321
e 230 792
e 230 383
e 230 737
e 230 828
e 230 478
e 231 689
e 231 559
e 232 392
e 232 891
e 234 498
e 234 835
e 234 977
e 234 773
e 234 818
e 236 932
e 236 682
e 237 618
e 237 333
e 240 561
e 240 302
e 240 652
e 241 352
e 241 300
e 241 714
e 241 518
e 242 419
e 242 277
e 242 461
e 242 773
e 243 881
e 243 652
e 243 821
e 243 663
e 243 264
e 243 961
e 244 980
e 244 464
e 244 730
e 244 831
e 245 581
e 245 365
e 245 574
e 245 786
e 247 934
e 247 847
e 247 910
e 247 574
e 248 518
e 248 558
e 248 338
e 248 428
e 248 823
e 250 921
e 250 516
e 250 564
e 250 998
e 250 456
e 253 590
e 253 981
e 253 416
e 256 970
e 256 492
e 258 631
e 258 689
e 258 516
e 258 967
e 258 893
e 259 297
e 260 770
e 260 568
e 260 976
e 260 709
e 260 380
e 261 763
e 261 614
e 261 864
e 261 375
e 262 709
e 262 273
e 262 376
e 263 420
e 263 376
e 263 631
e 264 424
e 264 966
e 264 754
e 264 947
e 266 933
e 266 936
e 266 342
e 266 965
e 267 720
e 267 291
e 267 983
e 267 515
e 267 762
e 269 739
e 270 466
e 273 839
e 273 304
e 273 479
e 275 749
e 275 605
e 275 544
e 275 837
e 275 612
e 276 945
e 276 365
e 276 584
e 276 660
e 277 996
e 277 314
e 277 341
e 277 312
e 277 356
e 279 420
e 279 376
e 279 422
e 281 465
e 281 477
e 281 921
e 281 510
e 281 367
e 282 727
e 282 831
e 284 563
e 284 592
e 284 814
e 285 515
e 286 990
e 286 659
e 286 423
e 286 656
e 286 518
e 286 394
e 288 986
e 288 487
e 288 341
e 289 498
e 289 767
e 290 843
e 291 867
e 291 583
e 291 450
e 293 726
e 293 333
e 295 784
e 295 864
e 295 308
e 296 410
e 296 363
e 296 821
e 297 587
e 297 585
e 297 996
e 297 579
e 297 466
e 298 437
e 298 573
e 298 707
e 298 780
e 298 385
e 298 823
e 298 910
e 298 586
e 298 646
e 300 372
e 300 520
e 300 768
e 300 583
e 300 303
e 300 839
e 302 729
e 302 808
e 302 878
e 302 764
e 302 575
e 302 352
e 302 313
e 302 879
e 302 779
e 302 417
e 303 437
e 303 360
e 303 652
e 303 391
e 304 692
e 304 675
e 304 997
e 304 497
e 304 639
e 305 674
e 305 789
e 305 536
e 307 558
e 307 993
e 307 848
e 307 837
e 308 586
e 308 982
e 309 828
e 309 428
e 309 481
e 310 349
e 310 457
e 310 851
e 311 577
e 311 754
e 311 491
e 312 850
e 313 533
e 314 718
e 314 598
e 315 675
e 315 487
e 315 351
e 316 879
e 316 474
e 316 319
e 318 722
e 318 915
e 319 354
e 319 822
e 319 781
e 320 904
e 320 356
e 320 845
e 321 334
e 323 927
e 323 571
e 323 338
e 323 609
e 323 734
e 325 856
e 325 508
e 325 982
e 325 606
e 325 790
e 326 680
e 327 511
e 327 469
e 327 436
e 328 745
e 328 520
e 328 679
e 328 477
e 328 467
e 329 720
e 329 692
e 329 363
e 330 556
e 330 817
e 330 515
e 330 870
e 330 853
e 331 608
e 331 445
e 331 700
e 331 857
e 333 945
e 333 600
e 334 576
e 334 758
e 334 347
e 334 613
e 335 501
e 335 538
e 335 774
e 336 888
e 336 982
e 336 761
e 336 867
e 336 966
e 336 902
e 337 683
e 337 633
e 338 613
e 338 724
e 338 766
e 338 817
e 339 521
e 339 710
e 339 510
e 339 754
e 340 967
e 340 372
e 340 984
e 341 382
e 342 398
e 342 694
e 342 876
e 342 544
e 342 867
e 342 624
e 342 530
e 342 884
e 342 642
e 342 770
e 342 871
e 342 910
e 346 901
e 346 651
e 346 613
e 346 542
e 347 956
e 347 426
e 348 615
e 348 408
e 348 356
e 349 732
e 350 378
e 350 615
e 350 710
e 351 436
e 351 528
e 351 798
e 352 517
e 352 493
e 352 896
e 353 751
e 353 365
e 353 533
e 354 641
e 354 409
e 354 588
e 355 498
e 355 624
e 356 917
e 356 978
e 356 625
e 358 554
e 358 838
e 358 641
e 359 843
e 359 427
e 360 981
e 360 515
e 360 508
e 360 458
e 360 979
e 363 660
e 364 842
e 364 746
e 364 859
e 364 808
e 365 432
e 365 448
e 365 588
e 365 624
e 367 766
e 367 978
e 367 566
e 368 579
e 368 638
e 368 464
e 369 780
e 369 678
e 369 709
e 371 464
e 371 932
e 371 730
e 371 600
e 371 764
e 371 436
e 372 872
e 372 587
e 372 497
e 372 686
e 372 426
e 372 810
e 373 749
e 373 463
e 373 960
e 374 649
e 374 667
e 375 962
e 376 641
e 376 414
e 377 689
e 377 517
e 377 977
e 378 601
e 378 647
e 378 957
e 378 402
e 379 931
e 379 764
e 379 523
e 380 527
e 382 455
e 382 877
e 383 542
e 383 489
e 383 544
e 385 495
e 385 781
e 385 430
e 387 511
e 387 882
e 387 965
e 387 394
e 387 692
e 387 878
e 388 467
e 388 958
e 390 860
e 390 986
e 390 711
e 391 596
e 391 937
e 391 876
e 391 613
e 392 639
e 392 860
e 394 739
e 395 752
e 395 516
e 395 588
e 396 605
e 396 712
e 398 691
e 400 402
e 400 915
e 400 700
e 400 978
e 401 782
e 401 872
e 401 467
e 401 628
e 402 819
e 403 972
e 403 786
e 403 970
e 403 415
e 406 891
e 406 465
e 406 631
e 406 531
e 408 574
e 408 920
e 408 912
e 408 713
e 409 778
e 409 749
e 409 527
e 410 883
e 410 605
e 411 947
e 411 887
e 411 712
e 411 711
e 412 839
e 412 962
e 412 634
e 413 742
e 413 818
e 413 738
e 414 921
e 414 872
e 414 466
e 414 542
e 415 728
e 415 831
e 415 556
e 416 894
e 416 915
e 416 561
e 417 580
e 417 515
e 418 643
e 418 522
e 418 426
e 418 542
e 418 842
e 419 651
e 419 712
e 419 801
e 419 469
e 420 467
e 422 523
e 422 980
e 422 535
e 423 639
e 423 861
e 424 752
e 424 909
e 424 425
e 425 694
e 425 600
e 425 772
e 425 452
e 426 762
e 426 592
e 426 702
e 426 667
e 426 874
e 426 975
e 426 545
e 427 438
e 427 509
e 427 625
e 428 758
e 429 805
e 429 652
e 429 546
e 430 622
e 430 874
e 432 730
e 433 910
e 433 989
e 434 532
e 436 680
e 436 959
e 436 735
e 436 817
e 436 728
e 437 726
e 437 623
e 437 732
e 438 676
e 438 792
e 438 742
e 438 881
e 438 491
e 438 712
e 439 751
e 440 850
e 440 851
e 440 727
e 440 643
e 442 730
e 442 904
e 442 976
e 443 764
e 443 810
e 443 970
e 443 585
e 444 835
e 444 587
e 444 777
e 445 718
e 445 643
e 445 657
e 445 615
e 446 792
e 446 804
e 446 828
e 448 958
e 448 943
e 449 639
e 449 648
e 450 596
e 452 536
e 452 929
e 452 730
e 453 837
e 453 884
e 453 937
e 453 757
e 454 826
e 454 998
e 455 910
e 455 798
e 456 457
e 457 982
e 457 931
e 457 530
e 457 727
e 458 502
e 458 648
e 458 492
e 458 774
e 460 958
e 460 851
e 460 998
e 461 616
e 461 963
e 462 821
e 464 961
e 464 632
e 464 491
e 465 764
e 465 474
e 466 955
e 467 818
e 467 511
e 467 892
e 469 818
e 469 479
e 469 486
e 470 501
e 472 778
e 472 967
e 472 633
e 474 907
e 474 892
e 474 581
e 474 520
e 474 733
e 474 686
e 474 927
e 476 850
e 477 737
e 478 559
e 478 931
e 478 745
e 479 693
e 479 505
e 479 651
e 481 648
e 481 965
e 481 682
e 481 859
e 481 591
e 483 576
e 483 837
e 485 775
e 485 761
e 487 723
e 488 501
e 488 951
e 488 515
e 489 835
e 491 934
e 491 987
e 491 642
e 492 704
e 492 680
e 493 568
e 493 929
e 493 818
e 493 978
e 493 521
e 495 843
e 496 746
e 496 973
e 496 681
e 497 572
e 497 812
e 497 510
e 497 990
e 497 673
e 497 708
e 498 565
e 498 848
e 501 853
e 501 718
e 502 871
e 502 723
e 505 635
e 505 797
e 505 938
e 506 633
e 506 565
e 508 664
e 508 518
e 509 608
e 509 977
e 510 740
e 510 848
e 510 915
e 510 956
e 511 597
e 513 538
e 514 875
e 514 671
e 514 597
e 514 828
e 515 738
e 515 658
e 516 655
e 517 802
e 517 924
e 517 549
e 517 689
e 518 814
e 518 834
e 518 986
e 520 521
e 522 817
e 522 560
e 522 739
e 523 708
e 523 822
e 524 712
e 526 773
e 526 933
e 527 957
e 527 872
e 528 603
e 528 975
e 528 755
e 530 721
e 530 863
e 530 573
e 531 711
e 531 559
e 532 722
e 532 847
e 532 562
e 532 788
e 533 679
e 534 641
e 534 639
e 535 799
e 535 624
e 536 910
e 536 575
e 536 835
e 538 542
e 538 951
e 538 600
e 541 687
e 541 565
e 542 659
e 544 901
e 544 641
e 545 560
e 545 819
e 546 900
e 546 653
e 546 721
e 546 560
e 546 767
e 546 673
e 549 743
e 549 709
e 549 964
e 549 680
e 550 920
e 552 640
e 552 837
e 552 910
e 552 612
e 554 872
e 554 580
e 556 976
e 556 949
e 558 834
e 558 699
e 559 673
e 559 914
e 561 885
e 561 738
e 561 945
e 562 997
e 562 742
e 563 707
e 563 595
e 563 977
e 564 904
e 564 907
e 565 705
e 566 819
e 566 597
e 571 655
e 571 926
e 572 639
e 572 613
e 572 643
e 573 786
e 573 648
e 574 651
e 574 636
e 574 856
e 574 770
e 574 594
e 574 682
e 575 667
e 576 792
e 577 963
e 577 622
e 579 981
e 579 754
e 579 647
e 580 783
e 580 713
e 580 747
e 584 598
e 584 860
e 585 898
e 585 838
e 585 798
e 586 724
e 586 762
e 587 698
e 588 759
e 590 963
e 590 699
e 591 731
e 591 980
e 592 945
e 594 778
e 594 680
e 595 802
e 596 892
e 596 825
e 596 746
e 597 996
e 597 682
e 598 947
e 598 838
e 598 921
e 600 934
e 600 825
e 600 766
e 600 777
e 600 657
e 600 614
e 602 936
e 602 879
e 602 705
e 603 713
e 605 946
e 606 985
e 606 633
e 606 918
e 606 898
e 608 691
e 609 664
e 609 683
e 609 910
e 611 884
e 611 617
e 611 918
e 612 750
e 612 974
e 612 720
e 613 675
e 613 884
e 614 895
e 615 887
e 615 933
e 615 782
e 616 957
e 616 680
e 616 918
e 617 857
e 618 770
e 618 874
e 621 829
e 621 805
e 621 639
e 622 894
e 623 629
e 623 893
e 623 625
e 624 625
e 624 673
e 627 765
e 627 801
e 627 762
e 627 901
e 628 726
e 628 976
e 629 736
e 632 699
e 632 860
e 632 917
e 632 639
e 633 930
e 633 656
e 633 937
e 634 677
e 634 975
e 635 728
e 635 854
e 636 802
e 638 956
e 639 700
e 640 706
e 640 703
e 642 966
e 642 736
e 645 799
e 645 781
e 645 714
e 645 976
e 646 808
e 646 750
e 649 663
e 649 719
e 650 660
e 650 764
e 650 688
e 651 797
e 651 996
e 652 881
e 652 720
e 653 729
e 653 900
e 655 960
e 655 808
e 656 801
e 656 943
e 657 832
e 657 981
e 658 781
e 658 808
e 659 765
e 659 964
e 659 721
e 659 979
e 663 908
e 663 825
e 666 932
e 666 759
e 667 754
e 667 679
e 667 885
e 671 751
e 671 746
e 673 752
e 673 786
e 673 778
e 673 674
e 673 749
e 674 689
e 674 727
e 675 825
e 675 874
e 676 704
e 676 909
e 677 698
e 678 926
e 678 987
e 680 975
e 681 842
e 682 772
e 682 692
e 683 900
e 683 958
e 686 724
e 687 765
e 687 843
e 689 896
e 690 717
e 690 757
e 690 788
e 691 734
e 692 744
e 693 718
e 694 938
e 694 771
e 698 768
e 699 798
e 699 726
e 700 962
e 702 953
e 704 792
e 706 721
e 706 943
e 706 937
e 706 822
e 707 725
e 707 792
e 709 932
e 710 964
e 710 719
e 711 810
e 713 938
e 713 923
e 713 974
e 714 895
e 714 784
e 714 761
e 717 940
e 718 733
e 718 943
e 719 930
e 721 870
e 722 825
e 723 736
e 724 854
e 725 949
e 725 834
e 726 868
e 727 732
e 730 822
e 735 792
e 735 773
e 736 955
e 737 998
e 739 853
e 742 822
e 742 934
e 742 852
e 744 768
e 745 751
e 745 912
e 745 870
e 747 938
e 747 930
e 749 958
e 749 871
e 750 761
e 755 902
e 758 801
e 759 972
e 761 875
e 761 861
e 762 904
e 762 892
e 763 924
e 766 818
e 767 835
e 767 943
e 768 786
e 768 887
e 770 974
e 770 904
e 771 997
e 771 814
e 771 894
e 775 820
e 777 874
e 777 895
e 777 852
e 778 976
e 782 874
e 783 822
e 786 894
e 788 818
e 789 889
e 789 823
e 790 843
e 790 918
e 797 934
e 797 883
e 799 835
e 804 973
e 806 993
e 806 940
e 806 910
e 812 947
e 817 859
e 818 946
e 818 966
e 820 884
e 821 827
e 821 953
e 828 867
e 828 829
e 828 967
e 828 909
e 829 882
e 834 837
e 835 861
e 839 985
e 844 914
e 847 911
e 851 861
e 852 907
e 856 927
e 856 898
e 857 984
e 863 980
e 868 965
e 870 917
e 870 900
e 877 911
e 882 891
e 884 888
e 885 958
e 902 998
e 904 951
e 908 963
e 913 984
e 914 927
e 929 949
e 934 980
e 940 970
e 947 957
e 956 979
e 965 966
